SumColouring/JavaBacktracker/RandomInstances/22_0.30_3.col
c File: instances/22_0.30_3.col
c
c Description: Random graph of size 22 vertices and P(0.3) of edges between any two vertices.
p col 22 231
e 1 2
e 1 6
e 1 14
e 1 15
e 1 21
e 2 4
e 2 6
e 2 9
e 2 14
e 2 17
e 2 22
e 3 6
e 3 9
e 3 14
e 3 16
e 3 18
e 3 21
e 4 8
e 4 13
e 4 15
e 4 17
e 4 19
e 4 20
e 5 12
e 5 20
e 5 22
e 6 10
e 6 17
e 7 8
e 7 15
e 7 19
e 7 21
e 8 10
e 8 17
e 8 18
e 8 20
e 9 12
e 9 13
e 9 14
e 9 15
e 9 16
e 9 17
e 10 13
e 10 20
e 11 15
e 11 17
e 12 13
e 12 16
e 12 17
e 12 19
e 12 22
e 13 14
e 13 16
e 13 18
e 13 20
e 13 22
e 14 15
e 14 16
e 14 18
e 14 20
e 15 18
e 15 21
e 16 20
e 17 22
e 18 20
e 18 22
e 19 20
e 21 22